unknown
(:binary-propagations  2986
 :decisions            370
 :del-clause           556
 :final-checks         2
 :max-generation       1
 :max-memory           35.12
 :memory               23.81
 :mk-bool-var          4972
 :mk-clause            738
 :mk-clause-binary     3416
 :num-allocs           223244120
 :num-checks           1
 :propagations         3046
 :quant-instantiations 556
 :restarts             1
 :rlimit-count         1423292
 :time                 0.31)
